# CELL file written 12:55:39 (GMT+1.0) 14th April 2024 from run ge28d

%BLOCK lattice_cart
   ANG
       4.07449300000000        0.00000000000000        0.00000000000000    
       0.00000000000000        8.14898610000000        0.00000000000000    
       0.00000000000000        0.00000000000000        43.8110165000000    
%ENDBLOCK lattice_cart

%BLOCK cell_constraints
      0   0   0
      0   0   0
%ENDBLOCK cell_constraints

%BLOCK positions_frac
   H              0.000000000000000      -0.154271900000000      -0.020290500000000
   H              0.000000000000000       0.154271900000000      -0.020290500000000
   H              0.000000000000000       0.345728100000000      -0.020290500000000
   H              0.000000000000000       0.654271900000000      -0.020290500000000
   Ge             0.000000000000000       0.341205468738530       0.622013848309212
   Ge             0.000000000000000       0.658794531261471       0.622013848309212
   Ge             0.500000000000000       0.255516631825605       0.593432458451648
   Ge             0.500000000000000       0.744483368174395       0.593432458451648
   Ge             0.500000000000000       0.000000000000000       0.561945546923260
   Ge             0.500000000000000       0.500000000000000       0.558361402401792
   Ge             0.000000000000000       0.000000000000000       0.528300654049427
   Ge             0.000000000000000       0.500000000000000       0.525664531829383
   Ge             0.000000000000000       0.246790461820363       0.493983021197328
   Ge             0.000000000000000       0.753209538179637       0.493983021197328
   Ge             0.500000000000000       0.247651759718472       0.460870677559606
   Ge             0.500000000000000       0.752348240281528       0.460870677559606
   Ge             0.500000000000000       0.000000000000000       0.427413389670639
   Ge             0.500000000000000       0.500000000000000       0.428251388286474
   Ge             0.000000000000000       0.000000000000000       0.394541050216688
   Ge             0.000000000000000       0.500000000000000       0.395020956321832
   Ge             0.000000000000000       0.250410777742317       0.361755090982582
   Ge             0.000000000000000       0.749589222257683       0.361755090982582
   Ge             0.500000000000000       0.250039715588050       0.328808675310740
   Ge             0.500000000000000       0.749960284411950       0.328808675310740
   Ge             0.500000000000000       0.000000000000000       0.295876278773375
   Ge             0.500000000000000       0.500000000000000       0.295939072904474
   Ge             0.000000000000000       0.000000000000000       0.262990326893541
   Ge             0.000000000000000       0.500000000000000       0.263090543042481
   Ge             0.000000000000000       0.250175592090906       0.230186807811860
   Ge             0.000000000000000       0.749824407909094       0.230186807811860
   Ge             0.500000000000000       0.249963379671510       0.197290207321801
   Ge             0.500000000000000       0.750036620328490       0.197290207321801
   Ge             0.500000000000000       0.000000000000000       0.164348131392047
   Ge             0.500000000000000       0.500000000000000       0.164368668670474
   Ge             0.000000000000000       0.000000000000000       0.131409788717186
   Ge             0.000000000000000       0.500000000000000       0.131434637048873
   Ge             0.000000000000000       0.250070366710626       0.098445424742609
   Ge             0.000000000000000       0.749929633289374       0.098445424742609
   Ge             0.500000000000000       0.249995226389390       0.065552805530202
   Ge             0.500000000000000       0.750004773610609       0.065552805530202
   Ge             0.500000000000000       0.000000000000000       0.032881000000000
   Ge             0.500000000000000       0.500000000000000       0.032881000000000
   Ge             0.000000000000000       0.000000000000000       0.000000000000000
   Ge             0.000000000000000       0.500000000000000       0.000000000000000
%ENDBLOCK positions_frac

FIX_COM : false

%BLOCK ionic_constraints
        1 H              1        1.00000000    0.00000000    0.00000000
        2 H              1        0.00000000    1.00000000    0.00000000
        3 H              1        0.00000000    0.00000000    1.00000000
        4 H              2        1.00000000    0.00000000    0.00000000
        5 H              2        0.00000000    1.00000000    0.00000000
        6 H              2        0.00000000    0.00000000    1.00000000
        7 H              3        1.00000000    0.00000000    0.00000000
        8 H              3        0.00000000    1.00000000    0.00000000
        9 H              3        0.00000000    0.00000000    1.00000000
       10 H              4        1.00000000    0.00000000    0.00000000
       11 H              4        0.00000000    1.00000000    0.00000000
       12 H              4        0.00000000    0.00000000    1.00000000
       13 Ge            37        1.00000000    0.00000000    0.00000000
       14 Ge            37        0.00000000    1.00000000    0.00000000
       15 Ge            37        0.00000000    0.00000000    1.00000000
       16 Ge            38        1.00000000    0.00000000    0.00000000
       17 Ge            38        0.00000000    1.00000000    0.00000000
       18 Ge            38        0.00000000    0.00000000    1.00000000
       19 Ge            39        1.00000000    0.00000000    0.00000000
       20 Ge            39        0.00000000    1.00000000    0.00000000
       21 Ge            39        0.00000000    0.00000000    1.00000000
       22 Ge            40        1.00000000    0.00000000    0.00000000
       23 Ge            40        0.00000000    1.00000000    0.00000000
       24 Ge            40        0.00000000    0.00000000    1.00000000
%ENDBLOCK ionic_constraints

%BLOCK species_gamma
   radsectesla
   H          267522128.0    
%ENDBLOCK species_gamma

%BLOCK species_pot
   H       1|0.6|13|15|17|10(qc=8)
   Ge      3|2.0|10|12|13|40:41:32(qc=6)
%ENDBLOCK species_pot

SYMMETRY_TOL :     0.001000

%BLOCK symmetry_ops
# Symm. op. 1       E
          1.000000000000000       0.000000000000000       0.000000000000000
          0.000000000000000       1.000000000000000       0.000000000000000
          0.000000000000000       0.000000000000000       1.000000000000000
          0.000000000000000       0.000000000000000       0.000000000000000
# Symm. op. 2       2
         -1.000000000000000       0.000000000000000       0.000000000000000
          0.000000000000000      -1.000000000000000       0.000000000000000
          0.000000000000000       0.000000000000000       1.000000000000000
          0.000000000000000       0.000000000000000       0.000000000000000
# Symm. op. 3       m
         -1.000000000000000       0.000000000000000       0.000000000000000
          0.000000000000000       1.000000000000000       0.000000000000000
          0.000000000000000       0.000000000000000       1.000000000000000
          0.000000000000000       0.000000000000000       0.000000000000000
# Symm. op. 4       m
          1.000000000000000       0.000000000000000       0.000000000000000
          0.000000000000000      -1.000000000000000       0.000000000000000
          0.000000000000000       0.000000000000000       1.000000000000000
          0.000000000000000       0.000000000000000       0.000000000000000
%ENDBLOCK symmetry_ops

kpoint_mp_grid :    8   4   1

