# CELL file written 19:02:21 (GMT+1.0) 13th April 2024 from run si28d

%BLOCK lattice_cart
   ANG
       3.86683460000000        0.00000000000000        0.00000000000000    
       0.00000000000000        7.73366930000000        0.00000000000000    
       0.00000000000000        0.00000000000000        53.2797100000000    
%ENDBLOCK lattice_cart

%BLOCK cell_constraints
      0   0   0
      0   0   0
%ENDBLOCK cell_constraints

%BLOCK positions_frac
   H             -0.000000000000000      -0.156000500000000      -0.016011500000000
   H              0.000000000000000       0.156000500000000      -0.016011500000000
   H              0.000000000000000       0.343999500000000      -0.016011500000000
   H             -0.000000000000000       0.656000500000000      -0.016011500000000
   Si            -0.000000000000000       0.351054831033649       0.688350601853789
   Si             0.000000000000000       0.648945168966351       0.688350601853789
   Si             0.500000000000000       0.261468625730719       0.667884134679375
   Si             0.500000000000000       0.738531374269281       0.667884134679375
   Si             0.500000000000000       0.000000000000000       0.644569017355615
   Si             0.500000000000000       0.500000000000000       0.639740981659988
   Si             0.000000000000000       0.000000000000000       0.618160042278932
   Si             0.000000000000000       0.500000000000000       0.614654500698027
   Si             0.000000000000000       0.244326856482860       0.590741209015591
   Si            -0.000000000000000       0.755673143517140       0.590741209015591
   Si             0.500000000000000       0.245787839631780       0.565031461700876
   Si             0.500000000000000       0.754212160368220       0.565031461700876
   Si             0.500000000000000       0.000000000000000       0.538741027073976
   Si             0.500000000000000       0.500000000000000       0.539934119756788
   Si             0.000000000000000       0.000000000000000       0.513171771686328
   Si             0.000000000000000       0.500000000000000       0.513971058510692
   Si            -0.000000000000000       0.251264615992439       0.487759607569751
   Si             0.000000000000000       0.748735384007560       0.487759607569751
   Si             0.500000000000000       0.250631888773463       0.461981851760926
   Si             0.500000000000000       0.749368111226537       0.461981851760926
   Si             0.500000000000000       0.000000000000000       0.436332914086053
   Si             0.500000000000000       0.500000000000000       0.436201648965707
   Si             0.000000000000000       0.000000000000000       0.410625046632965
   Si             0.000000000000000       0.500000000000000       0.410554411998293
   Si            -0.000000000000000       0.249902977563595       0.384927243066986
   Si             0.000000000000000       0.750097022436405       0.384927243066986
   Si             0.500000000000000       0.249925953847447       0.359262605843192
   Si             0.500000000000000       0.750074046152554       0.359262605843192
   Si             0.500000000000000       0.000000000000000       0.333586099108241
   Si             0.500000000000000       0.500000000000000       0.333599532645232
   Si             0.000000000000000       0.000000000000000       0.307914246509622
   Si             0.000000000000000       0.500000000000000       0.307920161233318
   Si             0.000000000000000       0.250006519273053       0.282239808287760
   Si            -0.000000000000000       0.749993480726947       0.282239808287760
   Si             0.500000000000000       0.250008755403907       0.256563206284557
   Si             0.500000000000000       0.749991244596093       0.256563206284557
   Si             0.500000000000000       0.000000000000000       0.230891566136457
   Si             0.500000000000000       0.500000000000000       0.230890118276268
   Si             0.000000000000000       0.000000000000000       0.205224580633139
   Si             0.000000000000000       0.500000000000000       0.205224109488517
   Si             0.000000000000000       0.249999901279653       0.179563011502730
   Si            -0.000000000000000       0.750000098720347       0.179563011502730
   Si             0.500000000000000       0.249999345556639       0.153904988335644
   Si             0.500000000000000       0.750000654443361       0.153904988335644
   Si             0.500000000000000       0.000000000000000       0.128245347837698
   Si             0.500000000000000       0.500000000000000       0.128245369026856
   Si             0.000000000000000       0.000000000000000       0.102584306072946
   Si             0.000000000000000       0.500000000000000       0.102583834740937
   Si            -0.000000000000000       0.249999389192080       0.076923729996645
   Si             0.000000000000000       0.750000610807920       0.076923729996645
   Si             0.500000000000000       0.249999594247398       0.051277643263505
   Si             0.500000000000000       0.750000405752603       0.051277643263505
   Si             0.500000000000000       0.000000000000000       0.025659500000000
   Si             0.500000000000000       0.500000000000000       0.025659500000000
   Si             0.000000000000000       0.000000000000000       0.000000000000000
   Si             0.000000000000000       0.500000000000000       0.000000000000000
%ENDBLOCK positions_frac

FIX_COM : false

%BLOCK ionic_constraints
        1 H              1        1.00000000    0.00000000    0.00000000
        2 H              1        0.00000000    1.00000000    0.00000000
        3 H              1        0.00000000    0.00000000    1.00000000
        4 H              2        1.00000000    0.00000000    0.00000000
        5 H              2        0.00000000    1.00000000    0.00000000
        6 H              2        0.00000000    0.00000000    1.00000000
        7 H              3        1.00000000    0.00000000    0.00000000
        8 H              3        0.00000000    1.00000000    0.00000000
        9 H              3        0.00000000    0.00000000    1.00000000
       10 H              4        1.00000000    0.00000000    0.00000000
       11 H              4        0.00000000    1.00000000    0.00000000
       12 H              4        0.00000000    0.00000000    1.00000000
       13 Si            53        1.00000000    0.00000000    0.00000000
       14 Si            53        0.00000000    1.00000000    0.00000000
       15 Si            53        0.00000000    0.00000000    1.00000000
       16 Si            54        1.00000000    0.00000000    0.00000000
       17 Si            54        0.00000000    1.00000000    0.00000000
       18 Si            54        0.00000000    0.00000000    1.00000000
       19 Si            55        1.00000000    0.00000000    0.00000000
       20 Si            55        0.00000000    1.00000000    0.00000000
       21 Si            55        0.00000000    0.00000000    1.00000000
       22 Si            56        1.00000000    0.00000000    0.00000000
       23 Si            56        0.00000000    1.00000000    0.00000000
       24 Si            56        0.00000000    0.00000000    1.00000000
%ENDBLOCK ionic_constraints

%BLOCK species_gamma
   radsectesla
   H          267522128.0    
%ENDBLOCK species_gamma

%BLOCK species_pot
   H       1|0.6|13|15|17|10(qc=8)
   Si      3|1.8|5|6|7|30:31:32
%ENDBLOCK species_pot

SYMMETRY_TOL :     0.001000

%BLOCK symmetry_ops
# Symm. op. 1       E
          1.000000000000000       0.000000000000000       0.000000000000000
          0.000000000000000       1.000000000000000       0.000000000000000
          0.000000000000000       0.000000000000000       1.000000000000000
          0.000000000000000       0.000000000000000       0.000000000000000
# Symm. op. 2       2
         -1.000000000000000       0.000000000000000       0.000000000000000
          0.000000000000000      -1.000000000000000       0.000000000000000
          0.000000000000000       0.000000000000000       1.000000000000000
          0.000000000000000       0.000000000000000       0.000000000000000
# Symm. op. 3       m
         -1.000000000000000       0.000000000000000       0.000000000000000
          0.000000000000000       1.000000000000000       0.000000000000000
          0.000000000000000       0.000000000000000       1.000000000000000
          0.000000000000000       0.000000000000000       0.000000000000000
# Symm. op. 4       m
          1.000000000000000       0.000000000000000       0.000000000000000
          0.000000000000000      -1.000000000000000       0.000000000000000
          0.000000000000000       0.000000000000000       1.000000000000000
          0.000000000000000       0.000000000000000       0.000000000000000
%ENDBLOCK symmetry_ops

kpoint_mp_grid :    8   4   1

